(set-logic HORN)
(set-info :source |
    Benchmark: C_VC
    Output by Princess (http://www.philipp.ruemmer.org/princess.shtml)
|)
(set-info :status sat)
(declare-heap Heap Addr HeapObject
 defObj
 ((HeapObject 0) (TDLL 0)) (
  (
   (O_Int (getInt Int))
   (O_UInt (getUInt Int))
   (O_Addr (getAddr Addr))
   (O_AddrRange (getAddrRange AddrRange))
   (O_TDLL (getTDLL TDLL))
   (defObj)
  )
  (
   (TDLL (|TDLL::next| Addr) (|TDLL::prev| Addr) (|TDLL::data| Int))
  )
))
(declare-fun inv_main1001_2 (Heap Addr Addr) Bool)
(declare-fun inv_main1010_12 (Heap Addr Addr) Bool)
(declare-fun inv_main1013_11 (Heap Addr Addr) Bool)
(declare-fun inv_main1049_12 (Heap Addr Addr Addr Int Int) Bool)
(declare-fun inv_main996_2 (Heap) Bool)
(declare-fun inv_main_10 (Heap Addr Addr) Bool)
(declare-fun inv_main_26 (Heap Addr Addr Addr) Bool)
(declare-fun inv_main_33 (Heap Addr Addr Addr) Bool)
(declare-fun inv_main_36 (Heap Addr Addr Addr Int Int) Bool)
(declare-fun inv_main_44 (Heap Addr Addr Addr) Bool)
(assert (forall ((var0 Heap)) (or (not (= var0 emptyHeap)) (inv_main996_2 var0))))
(assert (forall ((var0 Addr) (var1 Heap) (var2 Addr) (var3 Int) (var4 Addr) (var5 Addr) (var6 Addr) (var7 Heap)) (or (not (and (inv_main_10 var7 var6 var5) (and (= var4 nullAddr) (and (not (= var3 0)) (and (not (= var2 nullAddr)) (and (and (and (= var1 var7) (= var0 var6)) (= var4 var5)) (= var2 (|TDLL::next| (getTDLL (read var7 var5)))))))))) (inv_main1010_12 var1 var0 var4))))
(assert (forall ((var0 Addr) (var1 Heap) (var2 Addr) (var3 Addr) (var4 Addr) (var5 Addr) (var6 Heap)) (or (not (and (inv_main_10 var6 var5 var4) (and (= var3 nullAddr) (and (= var2 nullAddr) (and (and (and (= var1 var6) (= var0 var5)) (= var3 var4)) (= var2 (|TDLL::next| (getTDLL (read var6 var4))))))))) (inv_main1013_11 var1 var0 var3))))
(assert (forall ((var0 Addr) (var1 Heap) (var2 Addr) (var3 Int) (var4 Addr) (var5 Addr) (var6 Addr) (var7 Heap)) (or (not (and (inv_main_10 var7 var6 var5) (and (= var4 nullAddr) (and (= var3 0) (and (not (= var2 nullAddr)) (and (and (and (= var1 var7) (= var0 var6)) (= var4 var5)) (= var2 (|TDLL::next| (getTDLL (read var7 var5)))))))))) (inv_main1013_11 var1 var0 var4))))
(assert (forall ((var0 Int) (var1 Addr) (var2 Addr) (var3 Heap)) (or (not (and (inv_main1001_2 var3 var2 var1) (= var0 0))) (inv_main_10 var3 var2 var2))))
(assert (forall ((var0 Addr) (var1 Int) (var2 Addr) (var3 Addr) (var4 Addr) (var5 Addr) (var6 Addr) (var7 Heap) (var8 Heap) (var9 Addr) (var10 Addr) (var11 Heap)) (or (not (and (inv_main_10 var11 var10 var9) (and (and (and (and (= var8 var7) (= var6 var5)) (= var4 var3)) (= var2 (|TDLL::next| (getTDLL (read var7 var3))))) (and (not (= var3 nullAddr)) (and (not (= var1 0)) (and (not (= var0 nullAddr)) (and (and (and (= var7 var11) (= var5 var10)) (= var3 var9)) (= var0 (|TDLL::next| (getTDLL (read var11 var9))))))))))) (inv_main_10 var8 var6 var2))))
(assert (forall ((var0 Addr) (var1 Addr) (var2 Addr) (var3 Addr) (var4 Heap) (var5 Addr) (var6 Addr) (var7 Addr) (var8 Addr) (var9 Heap) (var10 Addr) (var11 Addr) (var12 Addr) (var13 Addr) (var14 Heap) (var15 Addr) (var16 Addr) (var17 Addr) (var18 Heap)) (or (not (and (inv_main_26 var18 var17 var16 var15) (and (and (and (and (and (and (and (= var14 var18) (= var13 var17)) (= var12 var16)) (= var11 var15)) (= var10 (|TDLL::next| (getTDLL (read var18 var16))))) (and (and (and (and (= var9 (write var14 var12 (O_TDLL (TDLL var11 (|TDLL::prev| (getTDLL (read var14 var12))) (|TDLL::data| (getTDLL (read var14 var12))))))) (= var8 var13)) (= var7 var12)) (= var6 var11)) (= var5 var10))) (and (and (and (and (= var4 (write var9 var7 (O_TDLL (TDLL (|TDLL::next| (getTDLL (read var9 var7))) var5 (|TDLL::data| (getTDLL (read var9 var7))))))) (= var3 var8)) (= var2 var7)) (= var1 var6)) (= var0 var5))) (not (= var16 nullAddr))))) (inv_main_26 var4 var3 var0 var2))))
(assert (forall ((var0 Addr) (var1 Heap) (var2 Addr) (var3 Addr) (var4 Addr) (var5 Addr) (var6 Addr) (var7 Addr) (var8 Heap) (var9 Heap) (var10 Addr) (var11 Addr) (var12 Addr) (var13 Addr) (var14 Addr) (var15 Addr) (var16 Heap) (var17 Heap) (var18 Addr) (var19 Addr) (var20 Heap)) (or (not (and (inv_main_10 var20 var19 var18) (and (and (and (and (and (= var17 var16) (= var15 var14)) (= var13 var12)) (= var11 nullAddr)) (and (and (and (not (= var10 nullAddr)) (and (and (and (= var9 var8) (= var7 var6)) (= var5 var4)) (= var10 (|TDLL::next| (getTDLL (read var8 var4)))))) (and (not (= var3 nullAddr)) (and (= var2 nullAddr) (and (and (and (= var1 var20) (= var0 var19)) (= var3 var18)) (= var2 (|TDLL::next| (getTDLL (read var20 var18)))))))) (and (and (= var8 (write var1 var3 (O_TDLL (TDLL (|TDLL::next| (getTDLL (read var1 var3))) (|TDLL::prev| (getTDLL (read var1 var3))) 1)))) (= var6 var0)) (= var4 var3)))) (and (and (= var16 (write var9 (|TDLL::next| (getTDLL (read var9 var5))) (O_TDLL (TDLL (|TDLL::next| (getTDLL (read var9 (|TDLL::next| (getTDLL (read var9 var5)))))) (|TDLL::prev| (getTDLL (read var9 (|TDLL::next| (getTDLL (read var9 var5)))))) 2)))) (= var14 var7)) (= var12 var5))))) (inv_main_26 var17 var15 var15 var11))))
(assert (forall ((var0 Addr) (var1 Heap) (var2 Addr) (var3 Int) (var4 Addr) (var5 Addr) (var6 Addr) (var7 Addr) (var8 Addr) (var9 Heap) (var10 Heap) (var11 Addr) (var12 Addr) (var13 Addr) (var14 Addr) (var15 Addr) (var16 Addr) (var17 Heap) (var18 Heap) (var19 Addr) (var20 Addr) (var21 Heap)) (or (not (and (inv_main_10 var21 var20 var19) (and (and (and (and (and (= var18 var17) (= var16 var15)) (= var14 var13)) (= var12 nullAddr)) (and (and (and (not (= var11 nullAddr)) (and (and (and (= var10 var9) (= var8 var7)) (= var6 var5)) (= var11 (|TDLL::next| (getTDLL (read var9 var5)))))) (and (not (= var4 nullAddr)) (and (= var3 0) (and (not (= var2 nullAddr)) (and (and (and (= var1 var21) (= var0 var20)) (= var4 var19)) (= var2 (|TDLL::next| (getTDLL (read var21 var19))))))))) (and (and (= var9 (write var1 var4 (O_TDLL (TDLL (|TDLL::next| (getTDLL (read var1 var4))) (|TDLL::prev| (getTDLL (read var1 var4))) 1)))) (= var7 var0)) (= var5 var4)))) (and (and (= var17 (write var10 (|TDLL::next| (getTDLL (read var10 var6))) (O_TDLL (TDLL (|TDLL::next| (getTDLL (read var10 (|TDLL::next| (getTDLL (read var10 var6)))))) (|TDLL::prev| (getTDLL (read var10 (|TDLL::next| (getTDLL (read var10 var6)))))) 2)))) (= var15 var8)) (= var13 var6))))) (inv_main_26 var18 var16 var16 var12))))
(assert (forall ((var0 Addr) (var1 Addr) (var2 Heap) (var3 Addr) (var4 Addr) (var5 Heap) (var6 Addr) (var7 Heap) (var8 Addr) (var9 Addr) (var10 Addr) (var11 Addr) (var12 Heap) (var13 Addr) (var14 Addr) (var15 Addr) (var16 Addr) (var17 Addr) (var18 Addr) (var19 TDLL) (var20 Heap) (var21 Heap) (var22 Addr) (var23 Addr) (var24 Addr) (var25 Addr) (var26 Addr) (var27 Heap) (var28 Heap) (var29 Addr) (var30 Addr) (var31 Addr) (var32 Addr) (var33 Addr) (var34 Heap) (var35 Heap) (var36 Addr) (var37 Addr) (var38 Heap)) (or (not (and (inv_main_10 var38 var37 var36) (and (and (and (and (and (= var35 var34) (= var33 var32)) (= var31 var30)) (= var29 nullAddr)) (and (and (and (and (and (and (= var28 var27) (= var26 var25)) (= var24 var23)) (= var22 (|TDLL::next| (getTDLL (read var27 var23))))) (and (and (and (and (and (= var21 (newHeap (alloc var20 (O_TDLL var19)))) (= var18 var17)) (= var16 var15)) (= var14 (newAddr (alloc var20 (O_TDLL var19))))) (and (and (and (= var13 nullAddr) (and (and (and (= var20 var12) (= var17 var11)) (= var15 var10)) (= var13 (|TDLL::next| (getTDLL (read var12 var10)))))) (and (not (= var9 nullAddr)) (and (= var8 nullAddr) (and (and (and (= var7 var38) (= var6 var37)) (= var9 var36)) (= var8 (|TDLL::next| (getTDLL (read var38 var36)))))))) (and (and (= var12 (write var7 var9 (O_TDLL (TDLL (|TDLL::next| (getTDLL (read var7 var9))) (|TDLL::prev| (getTDLL (read var7 var9))) 1)))) (= var11 var6)) (= var10 var9)))) (and (and (= var5 (write var21 var16 (O_TDLL (TDLL var14 (|TDLL::prev| (getTDLL (read var21 var16))) (|TDLL::data| (getTDLL (read var21 var16))))))) (= var4 var18)) (= var3 var16)))) (and (and (= var27 (write var5 (|TDLL::next| (getTDLL (read var5 var3))) (O_TDLL (TDLL (|TDLL::next| (getTDLL (read var5 (|TDLL::next| (getTDLL (read var5 var3)))))) var3 (|TDLL::data| (getTDLL (read var5 (|TDLL::next| (getTDLL (read var5 var3)))))))))) (= var25 var4)) (= var23 var3))) (and (and (= var2 (write var28 var22 (O_TDLL (TDLL nullAddr (|TDLL::prev| (getTDLL (read var28 var22))) (|TDLL::data| (getTDLL (read var28 var22))))))) (= var1 var26)) (= var0 var22)))) (and (and (= var34 (write var2 var0 (O_TDLL (TDLL (|TDLL::next| (getTDLL (read var2 var0))) (|TDLL::prev| (getTDLL (read var2 var0))) 2)))) (= var32 var1)) (= var30 var0))))) (inv_main_26 var35 var33 var33 var29))))
(assert (forall ((var0 Addr) (var1 Addr) (var2 Heap) (var3 Addr) (var4 Addr) (var5 Heap) (var6 Addr) (var7 Heap) (var8 Addr) (var9 Int) (var10 Addr) (var11 Addr) (var12 Addr) (var13 Heap) (var14 Addr) (var15 Addr) (var16 Addr) (var17 Addr) (var18 Addr) (var19 Addr) (var20 TDLL) (var21 Heap) (var22 Heap) (var23 Addr) (var24 Addr) (var25 Addr) (var26 Addr) (var27 Addr) (var28 Heap) (var29 Heap) (var30 Addr) (var31 Addr) (var32 Addr) (var33 Addr) (var34 Addr) (var35 Heap) (var36 Heap) (var37 Addr) (var38 Addr) (var39 Heap)) (or (not (and (inv_main_10 var39 var38 var37) (and (and (and (and (and (= var36 var35) (= var34 var33)) (= var32 var31)) (= var30 nullAddr)) (and (and (and (and (and (and (= var29 var28) (= var27 var26)) (= var25 var24)) (= var23 (|TDLL::next| (getTDLL (read var28 var24))))) (and (and (and (and (and (= var22 (newHeap (alloc var21 (O_TDLL var20)))) (= var19 var18)) (= var17 var16)) (= var15 (newAddr (alloc var21 (O_TDLL var20))))) (and (and (and (= var14 nullAddr) (and (and (and (= var21 var13) (= var18 var12)) (= var16 var11)) (= var14 (|TDLL::next| (getTDLL (read var13 var11)))))) (and (not (= var10 nullAddr)) (and (= var9 0) (and (not (= var8 nullAddr)) (and (and (and (= var7 var39) (= var6 var38)) (= var10 var37)) (= var8 (|TDLL::next| (getTDLL (read var39 var37))))))))) (and (and (= var13 (write var7 var10 (O_TDLL (TDLL (|TDLL::next| (getTDLL (read var7 var10))) (|TDLL::prev| (getTDLL (read var7 var10))) 1)))) (= var12 var6)) (= var11 var10)))) (and (and (= var5 (write var22 var17 (O_TDLL (TDLL var15 (|TDLL::prev| (getTDLL (read var22 var17))) (|TDLL::data| (getTDLL (read var22 var17))))))) (= var4 var19)) (= var3 var17)))) (and (and (= var28 (write var5 (|TDLL::next| (getTDLL (read var5 var3))) (O_TDLL (TDLL (|TDLL::next| (getTDLL (read var5 (|TDLL::next| (getTDLL (read var5 var3)))))) var3 (|TDLL::data| (getTDLL (read var5 (|TDLL::next| (getTDLL (read var5 var3)))))))))) (= var26 var4)) (= var24 var3))) (and (and (= var2 (write var29 var23 (O_TDLL (TDLL nullAddr (|TDLL::prev| (getTDLL (read var29 var23))) (|TDLL::data| (getTDLL (read var29 var23))))))) (= var1 var27)) (= var0 var23)))) (and (and (= var35 (write var2 var0 (O_TDLL (TDLL (|TDLL::next| (getTDLL (read var2 var0))) (|TDLL::prev| (getTDLL (read var2 var0))) 2)))) (= var33 var1)) (= var31 var0))))) (inv_main_26 var36 var34 var34 var30))))
(assert (forall ((var0 Int) (var1 Int) (var2 Int) (var3 Int) (var4 Addr) (var5 Addr) (var6 Addr) (var7 Addr) (var8 Addr) (var9 Addr) (var10 Heap) (var11 Heap) (var12 Addr) (var13 Addr) (var14 Addr) (var15 Heap)) (or (not (and (inv_main_33 var15 var14 var13 var12) (and (and (and (and (and (and (and (and (and (= var11 var10) (= var9 var8)) (= var7 var6)) (= var5 var4)) (= var3 var2)) (= var1 0)) (= var0 (|TDLL::data| (getTDLL (read var10 (|TDLL::next| (getTDLL (read var10 var6)))))))) (= var2 2)) (and (and (and (and (= var10 var15) (= var8 var14)) (= var6 var13)) (= var4 var12)) (= var2 (|TDLL::data| (getTDLL (read var15 var13)))))) (not (= var13 nullAddr))))) (inv_main_36 var11 var9 var7 var5 var3 var0))))
(assert (forall ((var0 Int) (var1 Addr) (var2 Addr) (var3 Addr) (var4 Heap) (var5 Int) (var6 Addr) (var7 Addr) (var8 Addr) (var9 Heap)) (or (not (and (inv_main_33 var9 var8 var7 var6) (and (and (and (not (= var5 2)) (and (and (and (and (= var4 var9) (= var3 var8)) (= var2 var7)) (= var1 var6)) (= var5 (|TDLL::data| (getTDLL (read var9 var7)))))) (not (= var7 nullAddr))) (= var0 0)))) (inv_main_36 var4 var3 var2 var1 var5 var0))))
(assert (forall ((var0 Addr) (var1 Addr) (var2 Addr) (var3 Heap)) (or (not (and (inv_main_33 var3 var2 var1 var0) (= var1 nullAddr))) (inv_main_44 var3 var2 var2 var0))))
(assert (forall ((var0 Heap) (var1 Addr) (var2 Addr) (var3 Addr) (var4 Addr) (var5 Heap) (var6 Addr) (var7 Addr) (var8 Addr) (var9 Heap)) (or (not (and (inv_main_44 var9 var8 var7 var6) (and (and (and (and (and (and (= var5 var9) (= var4 var7)) (= var3 var7)) (= var2 var6)) (= var1 (|TDLL::next| (getTDLL (read var9 var7))))) (not (= var7 nullAddr))) (= var0 (write var5 var4 defObj))))) (inv_main_44 var0 var4 var1 var2))))
(assert (forall ((var0 Heap) (var1 Addr) (var2 Addr) (var3 Heap) (var4 Addr) (var5 Addr) (var6 Heap) (var7 Int) (var8 Addr) (var9 Addr) (var10 Addr) (var11 TDLL) (var12 Heap) (var13 Addr) (var14 Addr) (var15 Addr) (var16 Addr) (var17 Addr) (var18 Heap) (var19 Heap) (var20 Addr) (var21 Addr) (var22 Heap)) (or (not (and (inv_main1001_2 var22 var21 var20) (and (and (and (and (and (and (and (= var19 var18) (= var17 var16)) (= var15 var14)) (= var13 (|TDLL::next| (getTDLL (read var18 var14))))) (and (and (and (and (and (= var12 (newHeap (alloc var22 (O_TDLL var11)))) (= var10 var21)) (= var9 var20)) (= var8 (newAddr (alloc var22 (O_TDLL var11))))) (not (= var7 0))) (and (and (= var6 (write var12 var9 (O_TDLL (TDLL var8 (|TDLL::prev| (getTDLL (read var12 var9))) (|TDLL::data| (getTDLL (read var12 var9))))))) (= var5 var10)) (= var4 var9)))) (and (and (= var18 (write var6 (|TDLL::next| (getTDLL (read var6 var4))) (O_TDLL (TDLL (|TDLL::next| (getTDLL (read var6 (|TDLL::next| (getTDLL (read var6 var4)))))) var4 (|TDLL::data| (getTDLL (read var6 (|TDLL::next| (getTDLL (read var6 var4)))))))))) (= var16 var5)) (= var14 var4))) (and (and (= var3 (write var19 var13 (O_TDLL (TDLL nullAddr (|TDLL::prev| (getTDLL (read var19 var13))) (|TDLL::data| (getTDLL (read var19 var13))))))) (= var2 var17)) (= var1 var13))) (= var0 (write var3 var1 (O_TDLL (TDLL (|TDLL::next| (getTDLL (read var3 var1))) (|TDLL::prev| (getTDLL (read var3 var1))) 0))))))) (inv_main1001_2 var0 var2 var1))))
(assert (forall ((var0 Addr) (var1 Heap) (var2 Addr) (var3 Heap) (var4 Addr) (var5 Heap) (var6 Addr) (var7 TDLL) (var8 Heap) (var9 Heap)) (or (not (and (inv_main996_2 var9) (and (and (and (and (= var8 (newHeap (alloc var9 (O_TDLL var7)))) (= var6 (newAddr (alloc var9 (O_TDLL var7))))) (and (= var5 (write var8 var6 (O_TDLL (TDLL nullAddr (|TDLL::prev| (getTDLL (read var8 var6))) (|TDLL::data| (getTDLL (read var8 var6))))))) (= var4 var6))) (and (= var3 (write var5 var4 (O_TDLL (TDLL (|TDLL::next| (getTDLL (read var5 var4))) nullAddr (|TDLL::data| (getTDLL (read var5 var4))))))) (= var2 var4))) (and (= var1 (write var3 var2 (O_TDLL (TDLL (|TDLL::next| (getTDLL (read var3 var2))) (|TDLL::prev| (getTDLL (read var3 var2))) 0)))) (= var0 var2))))) (inv_main1001_2 var1 var0 var0))))
(assert (forall ((var0 Int) (var1 Int) (var2 Addr) (var3 Addr) (var4 Addr) (var5 Heap)) (or (not (and (inv_main_36 var5 var4 var3 var2 var1 var0) (and (= var1 2) (not (= var0 1))))) (inv_main1049_12 var5 var4 var3 var2 var1 var0))))
(assert (forall ((var0 Int) (var1 Int) (var2 Int) (var3 Addr) (var4 Addr) (var5 Addr) (var6 Addr) (var7 Heap) (var8 Addr) (var9 Int) (var10 Int) (var11 Int) (var12 Int) (var13 Addr) (var14 Addr) (var15 Addr) (var16 Addr) (var17 Addr) (var18 Addr) (var19 Heap) (var20 Heap) (var21 Int) (var22 Int) (var23 Addr) (var24 Addr) (var25 Addr) (var26 Heap)) (or (not (and (inv_main_36 var26 var25 var24 var23 var22 var21) (and (and (and (and (and (and (and (= var20 var19) (= var18 var17)) (= var16 var15)) (= var14 var13)) (= var12 var11)) (= var10 var9)) (= var8 (|TDLL::next| (getTDLL (read var19 var15))))) (and (and (and (and (and (and (and (= var19 var7) (= var17 var6)) (= var5 var4)) (= var13 var3)) (= var11 var2)) (= var9 var1)) (= var15 (|TDLL::next| (getTDLL (read var7 var4))))) (and (and (= var0 2) (and (and (and (and (and (and (= var7 var26) (= var6 var25)) (= var4 var24)) (= var3 var23)) (= var2 var22)) (= var1 var21)) (= var0 (|TDLL::data| (getTDLL (read var26 var24)))))) (or (not (= var22 2)) (= var21 1))))))) (inv_main_33 var20 var18 var8 var14))))
(assert (forall ((var0 Int) (var1 Addr) (var2 Int) (var3 Int) (var4 Int) (var5 Int) (var6 Addr) (var7 Addr) (var8 Addr) (var9 Addr) (var10 Addr) (var11 Addr) (var12 Heap) (var13 Heap) (var14 Int) (var15 Int) (var16 Addr) (var17 Addr) (var18 Addr) (var19 Heap)) (or (not (and (inv_main_36 var19 var18 var17 var16 var15 var14) (and (and (and (and (and (and (and (= var13 var12) (= var11 var10)) (= var9 var8)) (= var7 var6)) (= var5 var4)) (= var3 var2)) (= var1 (|TDLL::next| (getTDLL (read var12 var8))))) (and (and (not (= var0 2)) (and (and (and (and (and (and (= var12 var19) (= var10 var18)) (= var8 var17)) (= var6 var16)) (= var4 var15)) (= var2 var14)) (= var0 (|TDLL::data| (getTDLL (read var19 var17)))))) (or (not (= var15 2)) (= var14 1)))))) (inv_main_33 var13 var11 var1 var7))))
(assert (forall ((var0 Addr) (var1 Addr) (var2 Addr) (var3 Heap)) (or (not (and (inv_main_26 var3 var2 var1 var0) (= var1 nullAddr))) (inv_main_33 var3 var0 var0 var0))))
(assert (forall ((var0 Addr) (var1 Addr) (var2 Heap)) (not (inv_main1010_12 var2 var1 var0))))
(assert (forall ((var0 Addr) (var1 Addr) (var2 Heap)) (not (inv_main1013_11 var2 var1 var0))))
(assert (forall ((var0 Int) (var1 Int) (var2 Addr) (var3 Addr) (var4 Addr) (var5 Heap)) (not (inv_main1049_12 var5 var4 var3 var2 var1 var0))))
(check-sat)
